p tw 59 934
0 1
0 2
0 3
0 4
0 5
0 6
0 7
0 8
0 9
0 12
0 15
0 18
0 23
0 34
0 35
0 36
0 37
0 13
0 17
0 22
0 26
0 27
0 43
0 47
0 48
0 16
0 24
0 28
0 32
0 46
0 51
0 11
0 14
0 19
0 20
0 33
0 38
0 45
0 55
0 21
0 25
0 44
0 10
0 50
0 53
0 54
0 56
1 2
1 3
1 4
1 5
1 6
1 7
1 8
1 9
1 19
1 22
1 27
1 28
1 29
1 30
1 12
1 17
1 23
1 31
1 33
1 42
1 51
1 52
1 53
1 21
1 25
1 26
1 34
1 38
1 44
1 47
1 10
1 11
1 50
1 54
1 56
1 15
1 49
1 32
1 40
1 58
2 3
2 4
2 5
2 6
2 7
2 8
2 9
2 16
2 20
2 22
2 24
2 31
2 32
2 33
2 26
2 35
2 43
2 44
2 45
2 46
2 19
2 21
2 36
2 49
2 50
2 51
2 25
2 34
2 38
2 47
2 13
2 37
2 48
2 29
2 39
2 42
3 4
3 5
3 6
3 7
3 8
3 9
3 16
3 20
3 22
3 24
3 31
3 32
3 33
3 19
3 21
3 36
3 49
3 50
3 51
3 28
3 40
3 44
3 46
3 56
3 29
3 38
3 39
3 42
3 48
4 5
4 6
4 7
4 8
4 9
4 14
4 30
4 31
4 32
4 34
4 41
4 42
4 16
4 26
4 35
4 43
4 44
4 45
4 46
4 28
4 40
4 50
4 56
5 6
5 7
5 8
5 9
5 19
5 22
5 27
5 28
5 29
5 30
5 11
5 12
5 20
5 39
5 44
5 56
5 58
6 7
6 8
6 9
6 10
6 11
6 12
6 13
6 14
6 15
6 16
6 17
6 18
6 20
6 22
6 24
6 31
6 32
6 33
6 30
6 34
6 41
6 42
6 44
6 47
6 48
6 49
6 23
6 26
6 40
6 58
7 8
7 9
7 10
7 19
7 20
7 21
7 22
7 23
7 24
7 25
7 26
7 27
7 28
7 29
7 30
7 14
7 31
7 32
7 34
7 41
7 42
7 13
7 15
7 46
7 47
7 49
7 54
7 12
7 45
7 55
7 56
7 57
7 40
7 44
7 50
7 11
7 53
8 9
8 12
8 14
8 18
8 19
8 24
8 29
8 30
8 34
8 44
8 21
8 22
8 36
8 49
8 50
8 51
8 16
8 17
8 28
8 32
8 46
8 15
8 20
8 40
8 26
8 33
8 37
8 45
8 48
8 13
8 35
9 19
9 22
9 27
9 28
9 29
9 30
9 12
9 15
9 18
9 23
9 34
9 35
9 36
9 37
9 20
9 25
9 26
9 33
9 38
9 39
9 40
9 16
9 43
9 44
9 45
9 46
9 17
9 24
9 32
9 51
9 31
9 47
9 48
9 49
9 50
9 56
9 58
9 42
10 11
10 12
10 13
10 14
10 15
10 16
10 17
10 18
10 19
10 20
10 21
10 22
10 23
10 24
10 25
10 26
10 28
10 50
10 53
10 54
10 56
11 12
11 13
11 14
11 15
11 16
11 17
11 18
11 19
11 20
11 33
11 38
11 45
11 51
11 55
11 28
11 50
11 53
11 54
11 56
11 29
11 30
11 39
11 44
11 58
12 13
12 14
12 15
12 16
12 17
12 18
12 23
12 34
12 35
12 36
12 37
12 19
12 24
12 29
12 30
12 44
12 31
12 33
12 42
12 51
12 52
12 53
12 28
12 38
12 22
12 45
12 47
12 55
12 56
12 57
12 26
12 32
12 40
12 58
12 20
12 39
13 14
13 15
13 16
13 17
13 18
13 22
13 26
13 27
13 43
13 47
13 48
13 23
13 24
13 46
13 49
13 54
13 21
13 34
13 35
13 37
13 45
14 15
14 16
14 17
14 18
14 30
14 31
14 32
14 34
14 41
14 42
14 19
14 24
14 29
14 44
14 20
14 33
14 38
14 45
14 51
14 55
14 23
14 46
14 47
14 49
14 54
15 16
15 17
15 18
15 23
15 34
15 35
15 36
15 37
15 20
15 21
15 29
15 40
15 44
15 46
15 49
15 19
15 28
15 38
15 51
15 52
15 26
15 33
15 45
15 48
15 24
15 47
15 54
15 22
15 31
15 50
16 17
16 18
16 20
16 22
16 24
16 31
16 32
16 33
16 26
16 35
16 43
16 44
16 45
16 46
16 28
16 51
16 54
16 55
16 56
16 19
16 34
16 38
16 52
17 18
17 22
17 26
17 27
17 43
17 47
17 48
17 23
17 31
17 33
17 42
17 51
17 52
17 53
17 24
17 28
17 32
17 46
17 20
17 21
17 29
17 40
17 44
17 49
17 19
17 34
17 38
18 23
18 34
18 35
18 36
18 37
18 22
18 26
18 27
18 43
18 47
18 48
18 19
18 24
18 29
18 30
18 44
18 20
18 31
18 49
18 28
18 51
18 54
18 55
18 56
19 20
19 21
19 22
19 23
19 24
19 25
19 26
19 27
19 28
19 29
19 30
19 34
19 44
19 36
19 49
19 50
19 51
19 38
19 52
19 33
19 45
19 55
19 47
19 56
19 57
19 31
20 21
20 22
20 23
20 24
20 25
20 26
20 31
20 32
20 33
20 35
20 38
20 39
20 40
20 34
20 44
20 47
20 48
20 49
20 29
20 46
20 45
20 51
20 55
20 37
20 42
20 30
20 56
20 58
21 22
21 23
21 24
21 25
21 26
21 36
21 49
21 50
21 51
21 29
21 40
21 44
21 46
21 34
21 38
21 47
21 33
21 37
21 45
21 48
21 35
22 23
22 24
22 25
22 26
22 27
22 28
22 29
22 30
22 31
22 32
22 33
22 43
22 47
22 48
22 36
22 49
22 50
22 51
22 54
22 55
22 56
22 45
22 57
23 24
23 25
23 26
23 34
23 35
23 36
23 37
23 33
23 38
23 39
23 40
23 31
23 42
23 51
23 52
23 53
23 46
23 47
23 49
23 54
23 32
23 58
24 25
24 26
24 31
24 32
24 33
24 29
24 30
24 34
24 44
24 28
24 46
24 51
24 54
24 55
24 56
24 47
24 49
24 35
24 37
24 45
24 48
25 26
25 33
25 35
25 38
25 39
25 40
25 34
25 44
25 47
26 33
26 35
26 38
26 39
26 40
26 43
26 44
26 45
26 46
26 27
26 47
26 48
26 28
26 51
26 54
26 55
26 56
26 34
26 37
26 29
26 31
26 49
26 50
26 32
26 58
27 28
27 29
27 30
27 43
27 47
27 48
28 29
28 30
28 32
28 46
28 51
28 54
28 55
28 56
28 34
28 38
28 52
28 40
28 44
28 50
28 53
29 30
29 34
29 44
29 40
29 46
29 49
29 31
29 33
29 50
29 38
29 39
29 42
29 48
29 56
29 58
30 31
30 32
30 34
30 41
30 42
30 44
30 45
30 47
30 55
30 56
30 57
30 39
30 58
31 32
31 33
31 34
31 41
31 42
31 51
31 52
31 53
31 44
31 47
31 48
31 49
31 50
32 33
32 34
32 41
32 42
32 46
32 51
32 40
32 58
33 35
33 38
33 39
33 40
33 42
33 51
33 52
33 53
33 45
33 55
33 37
33 48
33 49
33 50
33 58
34 35
34 36
34 37
34 41
34 42
34 44
34 47
34 48
34 49
34 38
34 51
34 52
34 45
35 36
35 37
35 38
35 39
35 40
35 43
35 44
35 45
35 46
35 48
36 37
36 49
36 50
36 51
37 45
37 48
37 51
38 39
38 40
38 51
38 52
38 45
38 55
38 44
38 47
38 42
38 48
38 49
39 40
39 42
39 48
39 49
39 44
39 56
39 58
40 44
40 46
40 49
40 50
40 56
40 58
41 42
42 51
42 52
42 53
42 48
42 49
43 44
43 45
43 46
43 47
43 48
44 45
44 46
44 47
44 48
44 49
44 50
44 56
44 58
45 46
45 51
45 55
45 48
45 47
45 56
45 57
46 51
46 49
46 47
46 54
46 50
46 56
47 48
47 49
47 54
47 55
47 56
47 57
48 49
48 51
49 50
49 51
49 54
50 51
50 56
50 53
50 54
51 52
51 53
51 54
51 55
51 56
52 53
53 54
53 56
54 55
54 56
55 56
55 57
56 57
56 58
